num_offers = 35;
num_halls = 10;
start=[28,69,20,66,28,15,16,12,72,14,78,33,34,50,33,80,66,15,63,69,11,83,26,16,67,10,63,23,59,4,58,19,56,21,39];
end=[100,90,81,92,82,42,33,80,84,88,91,74,92,74,39,87,84,94,84,90,47,97,33,65,93,65,72,37,89,61,82,68,63,56,52];
price=[2560,991,5343,905,2711,2406,659,2625,820,5708,1214,1531,3426,944,425,527,1825,2099,1656,916,2164,843,541,4048,2461,2675,351,695,1802,3545,2486,4409,284,2190,568];
requirement=[956,771,956,336,851,305,730,573,541,430,967,546,329,845,711,200,839,543,585,686,897,626,968,439,860,396,946,552,778,461,779,942,452,697,592];
capacity=[917,496,835,941,974,506,724,492,535,269];
